52 88 7 
59 99 85 96 
14 44 38 43 13 
31 51 9 50 
27 69 30 81 3 68 
72 75 22 74 58 
92 98 16 86 37 91 100 
45 83 18 6 
5 61 84 17 93 
95 94 
2 41 56 4 
21 73 26 
42 15 87 57 97 
36 47 19 10 
82 8 46 60 89 
33 29 78 34 35 77 
65 71 66 1 
40 53 
28 12 76 79 54 24 80 
63 64 90 20 32 70 
39 23 67 55 25 
62 11 49 48 
